; chc-comp19-benchmarks/./lra-ts/chc-lra-ts-0112_000.smt2
(set-logic HORN)

(declare-fun |state| ( Bool Bool Bool Bool Real Real Real Real Real Real Real Real Real Real Real Real Real Real Real Real Real Real Real Real Real Real Real Real Real ) Bool)

(assert
  (forall ( (A Bool) (B Bool) (C Bool) (D Bool) (E Real) (F Real) (G Real) (H Real) (I Real) (J Real) (K Real) (L Real) (M Real) (N Real) (O Real) (P Real) (Q Real) (R Real) (S Real) (T Real) (U Real) (V Real) (W Real) (X Real) (Y Real) (Z Real) (A1 Real) (B1 Real) (C1 Real) ) 
    (=>
      (and
        (and (not C) (= B true) (not A) (not D))
      )
      (state A B C D E F G H I J K L M N O P Q R S T U V W X Y Z A1 B1 C1)
    )
  )
)
(assert
  (forall ( (A Bool) (B Bool) (C Bool) (D Bool) (E Real) (F Real) (G Real) (H Real) (I Real) (J Real) (K Real) (L Real) (M Real) (N Real) (O Real) (P Real) (Q Real) (R Real) (S Real) (T Real) (U Real) (V Real) (W Real) (X Real) (Y Real) (Z Real) (A1 Real) (B1 Real) (C1 Real) (D1 Real) (E1 Real) (F1 Real) (G1 Real) (H1 Real) (I1 Real) (J1 Real) (K1 Real) (L1 Real) (M1 Real) (N1 Real) (O1 Real) (P1 Real) (Q1 Real) (R1 Real) (S1 Real) (T1 Real) (U1 Real) (V1 Real) (W1 Real) (X1 Real) (Y1 Real) (Z1 Real) (A2 Real) (B2 Real) (C2 Real) (D2 Bool) (E2 Bool) (F2 Bool) (G2 Bool) (H2 Real) (I2 Real) (J2 Real) (K2 Real) (L2 Real) ) 
    (=>
      (and
        (state A B C D E F G H I J K L M N O P Q R S T U V W X Y Z A1 B1 C1)
        (let ((a!1 (and (= R1 K2)
                (= T1 A1)
                (not (= T1 0.0))
                (= T1 3.0)
                (not (= T1 2.0))
                (not (= T1 1.0))
                (= N L2)
                (= (+ R1 (* (- 1.0) A1)) 1.0)))
      (a!2 (and (= R1 L2)
                (= T1 A1)
                (not (= T1 0.0))
                (= T1 4.0)
                (not (= T1 3.0))
                (not (= T1 2.0))
                (not (= T1 1.0))
                (= M K2)
                (= (+ R1 (* (- 1.0) A1)) 1.0)))
      (a!3 (and (= R1 I2)
                (= T1 A1)
                (not (= T1 0.0))
                (= T1 2.0)
                (not (= T1 1.0))
                (= M K2)
                (= N L2)
                (= (+ R1 (* (- 1.0) A1)) 1.0)))
      (a!5 (and (= R1 J2)
                (= T1 A1)
                (not (= T1 0.0))
                (= T1 1.0)
                (= L I2)
                (= M K2)
                (= N L2)
                (= (+ R1 (* (- 1.0) A1)) 1.0)))
      (a!6 (and (= R1 H2)
                (= T1 A1)
                (= T1 0.0)
                (= J J2)
                (= L I2)
                (= M K2)
                (= N L2)
                (= (+ R1 (* (- 1.0) A1)) 1.0)))
      (a!7 (or (= C1 0.0) (= C1 4.0) (= C1 3.0) (= C1 2.0) (= C1 1.0)))
      (a!17 (and (= P1 R1)
                 (= T1 A1)
                 (not (= T1 0.0))
                 (= T1 3.0)
                 (not (= T1 2.0))
                 (not (= T1 1.0))
                 (= N Q1)
                 (= (+ R1 (* (- 1.0) A1)) 1.0)))
      (a!18 (and (= Q1 R1)
                 (= T1 A1)
                 (not (= T1 0.0))
                 (= T1 4.0)
                 (not (= T1 3.0))
                 (not (= T1 2.0))
                 (not (= T1 1.0))
                 (= M P1)
                 (= (+ R1 (* (- 1.0) A1)) 1.0)))
      (a!19 (and (= O1 R1)
                 (= T1 A1)
                 (not (= T1 0.0))
                 (= T1 2.0)
                 (not (= T1 1.0))
                 (= M P1)
                 (= N Q1)
                 (= (+ R1 (* (- 1.0) A1)) 1.0)))
      (a!21 (and (= T1 A1)
                 (not (= T1 0.0))
                 (= T1 1.0)
                 (= L O1)
                 (= M P1)
                 (= N Q1)
                 (= M1 R1)
                 (= (+ R1 (* (- 1.0) A1)) 1.0)))
      (a!22 (and (= T1 A1)
                 (= T1 0.0)
                 (= J M1)
                 (= L O1)
                 (= M P1)
                 (= N Q1)
                 (= E1 R1)
                 (= (+ R1 (* (- 1.0) A1)) 1.0)))
      (a!29 (or (and (= Z1 0.0) (= G Z1) (= K1 B1))
                (and (not (= Z1 0.0)) (= Z1 1.0) (= G Z1) (= K1 J))
                (and (not (= Z1 0.0))
                     (= Z1 2.0)
                     (not (= Z1 1.0))
                     (= G Z1)
                     (= K1 L))
                (and (not (= Z1 0.0))
                     (= Z1 3.0)
                     (not (= Z1 2.0))
                     (not (= Z1 1.0))
                     (= G Z1)
                     (= K1 M))
                (and (not (= Z1 0.0))
                     (= Z1 4.0)
                     (not (= Z1 3.0))
                     (not (= Z1 2.0))
                     (not (= Z1 1.0))
                     (= G Z1)
                     (= K1 N))))
      (a!34 (and (not A)
                 B
                 C
                 (not D)
                 D2
                 (not E2)
                 F2
                 (not G2)
                 (= T1 A1)
                 (not (= T1 0.0))
                 (not (= T1 4.0))
                 (not (= T1 3.0))
                 (not (= T1 2.0))
                 (not (= T1 1.0))
                 (= E H1)
                 (= F I1)
                 (= G J1)
                 (= H K1)
                 (= I L1)
                 (= J M1)
                 (= K N1)
                 (= L O1)
                 (= M P1)
                 (= N Q1)
                 (= P S1)
                 (= R U1)
                 (= S V1)
                 (= T W1)
                 (= U X1)
                 (= V Y1)
                 (= W Z1)
                 (= X A2)
                 (= Y B2)
                 (= Z C2)
                 (= D1 A1)
                 (= E1 B1)
                 (= F1 C1)
                 (= (+ R1 (* (- 1.0) A1)) 1.0))))
(let ((a!4 (and (or (and (or a!1 a!2) (= L I2)) a!3) (= J J2)))
      (a!20 (and (or (and (or a!17 a!18) (= L O1)) a!19) (= J M1)))
      (a!30 (or (and a!29 (not (<= L1 V)) (= G X1) (= K1 L1) (= L1 Y1))
                (and a!29 (<= L1 V) (= U X1) (= V Y1) (= K1 L1)))))
(let ((a!8 (and (or (and (or a!4 a!5) (= B1 H2)) a!6)
                a!7
                (<= 5.0 D1)
                (= U1 0.0)
                (= H1 H2)
                (= I1 U1)
                (= I1 C1)
                (= (+ D1 (* (- 1.0) A1)) 1.0)))
      (a!9 (and (or (and (or a!4 a!5) (= B1 H2)) a!6)
                a!7
                (<= 5.0 D1)
                (not (= U1 0.0))
                (= U1 1.0)
                (= H1 J2)
                (= I1 U1)
                (= I1 C1)
                (= (+ D1 (* (- 1.0) A1)) 1.0)))
      (a!10 (and (or (and (or a!4 a!5) (= B1 H2)) a!6)
                 a!7
                 (<= 5.0 D1)
                 (not (= U1 0.0))
                 (= U1 2.0)
                 (not (= U1 1.0))
                 (= H1 I2)
                 (= I1 U1)
                 (= I1 C1)
                 (= (+ D1 (* (- 1.0) A1)) 1.0)))
      (a!11 (and (or (and (or a!4 a!5) (= B1 H2)) a!6)
                 a!7
                 (<= 5.0 D1)
                 (not (= U1 0.0))
                 (= U1 3.0)
                 (not (= U1 2.0))
                 (not (= U1 1.0))
                 (= H1 K2)
                 (= I1 U1)
                 (= I1 C1)
                 (= (+ D1 (* (- 1.0) A1)) 1.0)))
      (a!12 (and (or (and (or a!4 a!5) (= B1 H2)) a!6)
                 a!7
                 (<= 5.0 D1)
                 (not (= U1 0.0))
                 (= U1 4.0)
                 (not (= U1 3.0))
                 (not (= U1 2.0))
                 (not (= U1 1.0))
                 (= H1 L2)
                 (= I1 U1)
                 (= I1 C1)
                 (= (+ D1 (* (- 1.0) A1)) 1.0)))
      (a!23 (and (not A)
                 B
                 C
                 (not D)
                 (not D2)
                 E2
                 F2
                 (not G2)
                 (or (and (or a!20 a!21) (= E1 B1)) a!22)
                 (not (<= 5.0 D1))
                 (= E H1)
                 (= F I1)
                 (= G J1)
                 (= H K1)
                 (= I L1)
                 (= K N1)
                 (= P S1)
                 (= R U1)
                 (= S V1)
                 (= T W1)
                 (= U X1)
                 (= V Y1)
                 (= W Z1)
                 (= X A2)
                 (= Y B2)
                 (= Z C2)
                 (= F1 C1)
                 (= (+ D1 (* (- 1.0) A1)) 1.0)))
      (a!24 (and (or (and (or a!20 a!21) (= E1 B1)) a!22)
                 a!7
                 (<= 5.0 D1)
                 (= U1 0.0)
                 (= E1 H1)
                 (= I1 U1)
                 (= I1 C1)
                 (= (+ D1 (* (- 1.0) A1)) 1.0)))
      (a!25 (and (or (and (or a!20 a!21) (= E1 B1)) a!22)
                 a!7
                 (<= 5.0 D1)
                 (not (= U1 0.0))
                 (= U1 1.0)
                 (= H1 M1)
                 (= I1 U1)
                 (= I1 C1)
                 (= (+ D1 (* (- 1.0) A1)) 1.0)))
      (a!26 (and (or (and (or a!20 a!21) (= E1 B1)) a!22)
                 a!7
                 (<= 5.0 D1)
                 (not (= U1 0.0))
                 (= U1 2.0)
                 (not (= U1 1.0))
                 (= H1 O1)
                 (= I1 U1)
                 (= I1 C1)
                 (= (+ D1 (* (- 1.0) A1)) 1.0)))
      (a!27 (and (or (and (or a!20 a!21) (= E1 B1)) a!22)
                 a!7
                 (<= 5.0 D1)
                 (not (= U1 0.0))
                 (= U1 3.0)
                 (not (= U1 2.0))
                 (not (= U1 1.0))
                 (= H1 P1)
                 (= I1 U1)
                 (= I1 C1)
                 (= (+ D1 (* (- 1.0) A1)) 1.0)))
      (a!28 (and (or (and (or a!20 a!21) (= E1 B1)) a!22)
                 a!7
                 (<= 5.0 D1)
                 (not (= U1 0.0))
                 (= U1 4.0)
                 (not (= U1 3.0))
                 (not (= U1 2.0))
                 (not (= U1 1.0))
                 (= H1 Q1)
                 (= I1 U1)
                 (= I1 C1)
                 (= (+ D1 (* (- 1.0) A1)) 1.0)))
      (a!31 (and A
                 (not B)
                 C
                 (not D)
                 (not D2)
                 E2
                 (not F2)
                 G2
                 a!30
                 (not (<= 5.0 J1))
                 (= E H1)
                 (= F I1)
                 (= J M1)
                 (= K N1)
                 (= L O1)
                 (= M P1)
                 (= N Q1)
                 (= O R1)
                 (= P S1)
                 (= Q T1)
                 (= R U1)
                 (= S V1)
                 (= T W1)
                 (= X A2)
                 (= Y B2)
                 (= Z C2)
                 (= D1 A1)
                 (= E1 B1)
                 (= F1 C1)
                 (= (+ G (* (- 1.0) J1)) (- 1.0))))
      (a!32 (and A
                 (not B)
                 C
                 (not D)
                 (not D2)
                 E2
                 (not F2)
                 (not G2)
                 a!30
                 (<= 5.0 J1)
                 (not (= X1 C1))
                 (= E H1)
                 (= F I1)
                 (= J M1)
                 (= K N1)
                 (= L O1)
                 (= M P1)
                 (= N Q1)
                 (= O R1)
                 (= P S1)
                 (= Q T1)
                 (= R U1)
                 (= S V1)
                 (= T W1)
                 (= X A2)
                 (= Y B2)
                 (= Z C2)
                 (= D1 A1)
                 (= E1 B1)
                 (= F1 C1)
                 (= (+ G (* (- 1.0) J1)) (- 1.0))))
      (a!33 (and (not A)
                 B
                 C
                 (not D)
                 D2
                 E2
                 F2
                 (not G2)
                 (or (and (or a!20 a!21) (= E1 B1)) a!22)
                 a!7
                 (<= 5.0 D1)
                 (not (= U1 0.0))
                 (not (= U1 4.0))
                 (not (= U1 3.0))
                 (not (= U1 2.0))
                 (not (= U1 1.0))
                 (= E H1)
                 (= G J1)
                 (= H K1)
                 (= I L1)
                 (= K N1)
                 (= P S1)
                 (= S V1)
                 (= T W1)
                 (= U X1)
                 (= V Y1)
                 (= W Z1)
                 (= X A2)
                 (= Y B2)
                 (= Z C2)
                 (= F1 C1)
                 (= I1 U1)
                 (= I1 C1)
                 (= (+ D1 (* (- 1.0) A1)) 1.0))))
(let ((a!13 (or (and (or a!8 a!9 a!10 a!11 a!12)
                     (= P1 C2)
                     (= S1 W1)
                     (= S1 L2)
                     (not (= V1 0.0))
                     (= V1 3.0)
                     (not (= V1 2.0))
                     (not (= V1 1.0))
                     (= W1 C2)
                     (= H1 B2)
                     (= I1 V1))
                (and (or a!8 a!9 a!10 a!11 a!12)
                     (= P1 K2)
                     (= S1 W1)
                     (= S1 L2)
                     (not (= V1 0.0))
                     (= V1 4.0)
                     (not (= V1 3.0))
                     (not (= V1 2.0))
                     (not (= V1 1.0))
                     (= W1 C2)
                     (= H1 B2)
                     (= I1 V1)))))
(let ((a!14 (or (and a!13 (= O1 I2))
                (and (or a!8 a!9 a!10 a!11 a!12)
                     (= O1 C2)
                     (= P1 K2)
                     (= S1 W1)
                     (= S1 L2)
                     (not (= V1 0.0))
                     (= V1 2.0)
                     (not (= V1 1.0))
                     (= W1 C2)
                     (= H1 B2)
                     (= I1 V1)))))
(let ((a!15 (or (and a!14 (= M1 J2))
                (and (or a!8 a!9 a!10 a!11 a!12)
                     (= O1 I2)
                     (= P1 K2)
                     (= S1 W1)
                     (= S1 L2)
                     (not (= V1 0.0))
                     (= V1 1.0)
                     (= W1 C2)
                     (= H1 B2)
                     (= I1 V1)
                     (= M1 C2)))))
(let ((a!16 (and (not A)
                 B
                 C
                 (not D)
                 (not D2)
                 E2
                 (not F2)
                 G2
                 (or (and a!15 (= E1 H2))
                     (and (or a!8 a!9 a!10 a!11 a!12)
                          (= O1 I2)
                          (= P1 K2)
                          (= S1 W1)
                          (= S1 L2)
                          (= V1 0.0)
                          (= W1 C2)
                          (= E1 C2)
                          (= H1 B2)
                          (= I1 V1)
                          (= M1 J2)))
                 (= N1 Q1)
                 (= N1 B2)
                 (= X1 0.0)
                 (= Y1 0.0)
                 (= H K1)
                 (= I L1)
                 (= W Z1)
                 (= X A2)
                 (= F1 C1)
                 (= J1 0.0))))
  (or (and (not A) (not B) C D D2 E2 (not F2) (not G2))
      a!16
      a!23
      (and (not A)
           B
           C
           (not D)
           (not D2)
           (not E2)
           (not F2)
           G2
           (or a!24 a!25 a!26 a!27 a!28)
           (= Q1 S1)
           (= S1 W1)
           (not (= V1 0.0))
           (not (= V1 4.0))
           (not (= V1 3.0))
           (not (= V1 2.0))
           (not (= V1 1.0))
           (= W1 C2)
           (= G J1)
           (= H K1)
           (= I L1)
           (= K N1)
           (= U X1)
           (= V Y1)
           (= W Z1)
           (= X A2)
           (= F1 C1)
           (= H1 B2)
           (= I1 V1))
      a!31
      a!32
      (and (not A)
           (not B)
           (not C)
           (not D)
           D2
           E2
           (not F2)
           (not G2)
           (= E H1)
           (= F I1)
           (= G J1)
           (= H K1)
           (= I L1)
           (= J M1)
           (= K N1)
           (= L O1)
           (= M P1)
           (= N Q1)
           (= O R1)
           (= P S1)
           (= Q T1)
           (= R U1)
           (= S V1)
           (= T W1)
           (= U X1)
           (= V Y1)
           (= W Z1)
           (= X A2)
           (= Y B2)
           (= Z C2)
           (= D1 A1)
           (= E1 B1)
           (= F1 C1))
      (and (not A)
           (not B)
           C
           (not D)
           D2
           E2
           (not F2)
           (not G2)
           (= E H1)
           (= F I1)
           (= G J1)
           (= H K1)
           (= I L1)
           (= J M1)
           (= K N1)
           (= L O1)
           (= M P1)
           (= N Q1)
           (= O R1)
           (= P S1)
           (= Q T1)
           (= R U1)
           (= S V1)
           (= T W1)
           (= U X1)
           (= V Y1)
           (= W Z1)
           (= X A2)
           (= Y B2)
           (= Z C2)
           (= D1 A1)
           (= E1 B1)
           (= F1 C1))
      (and (not A)
           B
           (not C)
           D
           D2
           E2
           (not F2)
           (not G2)
           (= E H1)
           (= F I1)
           (= G J1)
           (= H K1)
           (= I L1)
           (= J M1)
           (= K N1)
           (= L O1)
           (= M P1)
           (= N Q1)
           (= O R1)
           (= P S1)
           (= Q T1)
           (= R U1)
           (= S V1)
           (= T W1)
           (= U X1)
           (= V Y1)
           (= W Z1)
           (= X A2)
           (= Y B2)
           (= Z C2)
           (= D1 A1)
           (= E1 B1)
           (= F1 C1))
      (and (not A)
           B
           C
           D
           D2
           E2
           (not F2)
           (not G2)
           (= E H1)
           (= F I1)
           (= G J1)
           (= H K1)
           (= I L1)
           (= J M1)
           (= K N1)
           (= L O1)
           (= M P1)
           (= N Q1)
           (= O R1)
           (= P S1)
           (= Q T1)
           (= R U1)
           (= S V1)
           (= T W1)
           (= U X1)
           (= V Y1)
           (= W Z1)
           (= X A2)
           (= Y B2)
           (= Z C2)
           (= D1 A1)
           (= E1 B1)
           (= F1 C1))
      (and A
           (not B)
           (not C)
           (not D)
           D2
           E2
           (not F2)
           (not G2)
           (= E H1)
           (= F I1)
           (= G J1)
           (= H K1)
           (= I L1)
           (= J M1)
           (= K N1)
           (= L O1)
           (= M P1)
           (= N Q1)
           (= O R1)
           (= P S1)
           (= Q T1)
           (= R U1)
           (= S V1)
           (= T W1)
           (= U X1)
           (= V Y1)
           (= W Z1)
           (= X A2)
           (= Y B2)
           (= Z C2)
           (= D1 A1)
           (= E1 B1)
           (= F1 C1))
      (and (not A)
           B
           (not C)
           (not D)
           (not D2)
           E2
           F2
           (not G2)
           (= E H1)
           (= F I1)
           (= G J1)
           (= H K1)
           (= I L1)
           (= J M1)
           (= K N1)
           (= L O1)
           (= M P1)
           (= N Q1)
           (= O R1)
           (= P S1)
           (= Q T1)
           (= R U1)
           (= S V1)
           (= T W1)
           (= U X1)
           (= V Y1)
           (= W Z1)
           (= X A2)
           (= Y B2)
           (= Z C2)
           (= D1 0.0)
           (= E1 0.0)
           (= F1 G1))
      a!33
      a!34
      (and A
           (not B)
           C
           (not D)
           (not D2)
           (not E2)
           (not F2)
           (not G2)
           (not (= Z1 0.0))
           (not (= Z1 4.0))
           (not (= Z1 3.0))
           (not (= Z1 2.0))
           (not (= Z1 1.0))
           (= E H1)
           (= F I1)
           (= G Z1)
           (= G J1)
           (= H K1)
           (= I L1)
           (= J M1)
           (= K N1)
           (= L O1)
           (= M P1)
           (= N Q1)
           (= O R1)
           (= P S1)
           (= Q T1)
           (= R U1)
           (= S V1)
           (= T W1)
           (= U X1)
           (= V Y1)
           (= X A2)
           (= Y B2)
           (= Z C2)
           (= D1 A1)
           (= E1 B1)
           (= F1 C1))))))))))
      )
      (state G2
       F2
       E2
       D2
       H1
       I1
       J1
       K1
       L1
       M1
       N1
       O1
       P1
       Q1
       R1
       S1
       T1
       U1
       V1
       W1
       X1
       Y1
       Z1
       A2
       B2
       C2
       D1
       E1
       F1)
    )
  )
)
(assert
  (forall ( (A Bool) (B Bool) (C Bool) (D Bool) (E Real) (F Real) (G Real) (H Real) (I Real) (J Real) (K Real) (L Real) (M Real) (N Real) (O Real) (P Real) (Q Real) (R Real) (S Real) (T Real) (U Real) (V Real) (W Real) (X Real) (Y Real) (Z Real) (A1 Real) (B1 Real) (C1 Real) ) 
    (=>
      (and
        (state A B C D E F G H I J K L M N O P Q R S T U V W X Y Z A1 B1 C1)
        (and (= C true) (not B) (not A) (= D true))
      )
      false
    )
  )
)

(check-sat)
(exit)
